c description: Random 3-CNF over 24 variables and 102 clauses
c generator: CNFgen (0.9.2)
c copyright: (C) 2012-2022 Massimo Lauria <massimo.lauria@uniroma1.it>
c url: https://massimolauria.net/cnfgen
c command line: cnfgen --output CNF_4.28/24_bit_102_47.cnf randkcnf 3 24 102
c
p cnf 24 102
-1 12 -13 0
-2 14 18 0
7 18 -19 0
-7 9 15 0
21 -22 -24 0
-3 -8 11 0
-14 15 22 0
4 18 22 0
-4 -11 24 0
17 -18 23 0
13 -14 -22 0
9 12 13 0
4 17 -21 0
-3 11 23 0
5 -11 -16 0
-10 -12 -16 0
4 14 18 0
-6 -8 -24 0
-4 -9 -15 0
-4 14 16 0
-8 18 22 0
-14 -21 24 0
-2 -3 14 0
9 10 19 0
9 13 19 0
-15 19 22 0
-7 -19 23 0
-7 12 -13 0
5 -13 21 0
-5 6 11 0
-13 -15 19 0
8 -14 16 0
-2 -5 22 0
-4 5 -16 0
-9 10 11 0
3 4 5 0
2 -9 14 0
-7 10 16 0
5 19 -20 0
7 -14 -15 0
-5 -12 -21 0
-3 12 -16 0
-3 -14 -20 0
-4 5 -19 0
-11 12 21 0
-3 -4 -20 0
9 23 -24 0
7 9 16 0
5 13 22 0
4 -6 -8 0
-1 6 -24 0
-9 12 17 0
3 5 -24 0
-3 -7 -19 0
-6 12 -18 0
-7 10 22 0
-11 -13 -20 0
18 19 20 0
-6 13 23 0
-1 4 -17 0
-8 -15 -16 0
-11 -14 24 0
3 -14 21 0
-2 -19 -21 0
-7 8 20 0
2 -15 24 0
-5 -20 -21 0
-6 8 15 0
5 -18 24 0
-9 10 17 0
12 20 -24 0
-6 -16 18 0
-7 9 -17 0
10 -23 -24 0
2 -4 9 0
-1 6 -16 0
-1 -2 4 0
11 -14 20 0
2 -12 19 0
-5 6 -22 0
-13 -17 -19 0
-1 -5 -8 0
-5 -17 -24 0
-1 -8 21 0
17 19 -21 0
-3 -11 -18 0
3 13 -14 0
14 16 22 0
-6 -11 24 0
8 -9 12 0
-7 11 -23 0
-4 -10 -22 0
-18 20 -22 0
2 -7 -15 0
-2 -22 24 0
7 -19 21 0
-4 12 -17 0
-6 -16 -21 0
4 -17 -21 0
14 -17 24 0
6 9 -20 0
-3 12 22 0
